#######################################
### Exact MIP solver for the HHCRSP ###
#######################################
-- Instance file: new-instances/HHCRSP_300_60_61_0.4_C_C.txt
-- Max threads: 4
-- Time limit: 999999 seconds
-- Use initial solution: No
Trivial flow violations prevented generating 1148594 variables.
Version identifier: 20.1.0.0 | 2020-11-10 | 9bedb6d68
CPXPARAM_Threads                                 4
CPXPARAM_TimeLimit                               999999
Parallel mode: deterministic, using up to 4 threads for concurrent optimization:
 * Starting dual Simplex on 1 thread...
 * Starting Barrier on 3 threads...
Tried aggregator 1 time.
LP Presolve eliminated 44298 rows and 9688 columns.
Reduced LP has 1163564 rows, 1106148 columns, and 25672713 nonzeros.
Presolve time = 34.98 sec. (5660.70 ticks)
Symmetry aggregator did 1853883 additional substitutions.

Iteration log . . .
Iteration:     1   Dual objective     =             0.000000

Dual crossover.
  Dual:  Fixing 1776 variables.
     1775 DMoves:  Infeasibility  1.53819300e-12  Objective  3.60000000e+02
        0 DMoves:  Infeasibility  9.53133225e-13  Objective  3.60000000e+02
  Dual:  Pushed 104, exchanged 1672.
  Primal:  Fixing 1109 variables.
     1108 PMoves:  Infeasibility  0.00000000e+00  Objective  3.60000000e+02
        0 PMoves:  Infeasibility  0.00000000e+00  Objective  3.60000000e+02
  Primal:  Pushed 972, exchanged 137.

Dual simplex solved model.


Solution status from MIP model:
-- Processing time: 55.431 sec.
-- Memory used: 1044.46 MB
-- Best bound: inf
-- Obj value: 360
-- Gap: inf%
-- Total distance: 1080
-- Total tardiness: 0
-- Largest tardiness: 0
